120 150

46
47
58
45
47
56
50
44
40
54
57
50
43
40
40
40
54
51
45
40
40
40
60
48
42
40
56
55
45
50
46
55
49
40
52
59
44
47
52
56
42
43
50
58
43
49
40
40
41
49
44
57
40
54
57
44
49
50
53
47
46
44
60
40
40
40
49
46
55
40
40
40
57
48
45
59
40
51
48
44
58
58
43
49
50
43
57
40
54
59
40
55
54
41
52
52
46
44
56
50
42
50
58
60
49
41
41
54
56
50
44
48
47
55
41
43
41
50
59
41